language ESSENCE' 1.0

letting jobs = 102
letting horizon = 787
letting resourcesRenew = 2
letting resourcesNonrenew = 2
letting resourceLimits = [60, 62, 586, 569]
letting successors = [[2, 3, 4, 5, 6, 7, 9, 10, 12, 13, 14, 15, 16, 17, 18, 19, 20, 21, 22, 24, 26, 28, 32, 54], [68, 66, 64, 57, 47, 44, 42, 39, 36, 35, 11, 8], [99, 98, 97, 65, 63, 61, 59, 58, 56, 48, 46, 45, 40, 39, 35, 34, 31, 29, 25], [98, 97, 95, 68, 65, 64, 63, 62, 59, 56, 53, 49, 46, 45, 44, 37, 35, 33, 25], [101, 98, 97, 95, 93, 68, 67, 66, 65, 63, 47, 45, 43, 34, 33, 25, 23], [100, 98, 97, 95, 93, 92, 88, 87, 67, 64, 63, 62, 59, 58, 56, 53, 49, 45, 43, 40, 37, 29, 25], [99, 97, 89, 88, 61, 58, 57, 51, 50, 46, 45, 43, 40, 38, 31, 30], [101, 99, 97, 92, 88, 81, 67, 62, 61, 59, 52, 51, 50, 48, 46, 40, 37, 30], [99, 98, 97, 92, 88, 75, 67, 66, 64, 63, 61, 57, 53, 50, 46, 42, 41, 30], [99, 98, 97, 94, 89, 61, 56, 53, 51, 42, 34, 31, 25], [100, 99, 98, 97, 65, 63, 50, 45, 43, 33, 31, 23], [100, 97, 96, 94, 90, 88, 86, 67, 64, 63, 59, 57, 56, 52, 50, 31, 27], [98, 95, 91, 87, 68, 63, 58, 57, 56, 50, 49, 43, 39, 37, 35], [97, 96, 91, 89, 88, 87, 85, 68, 66, 65, 64, 63, 48, 47, 45, 43, 25], [100, 94, 92, 90, 89, 88, 85, 84, 80, 79, 77, 66, 64, 63, 57, 56, 51, 40, 38], [97, 94, 93, 92, 91, 89, 88, 87, 86, 85, 84, 83, 81, 78, 77, 74, 62, 56, 55, 52, 49, 39], [100, 96, 94, 89, 88, 81, 80, 74, 71, 61, 51, 50, 31], [98, 97, 94, 93, 92, 91, 90, 86, 85, 82, 81, 80, 78, 74, 70, 65, 61, 56, 52, 37], [101, 99, 96, 93, 85, 78, 70, 65, 61, 58, 56, 52, 51, 37], [99, 98, 97, 96, 90, 87, 84, 82, 77, 61, 60, 58, 40, 36], [98, 90, 89, 84, 82, 77, 73, 59, 58, 48, 46, 43, 36], [99, 98, 97, 91, 88, 85, 84, 79, 78, 76, 75, 73, 71, 66, 64, 60, 57, 51, 50], [94, 92, 90, 89, 88, 87, 85, 84, 81, 79, 76, 74, 70, 60, 59, 55], [100, 98, 94, 93, 91, 90, 88, 83, 80, 77, 63, 55, 43], [90, 86, 82, 80, 79, 78, 75, 71, 70, 69, 57, 55, 50], [97, 93, 92, 90, 89, 84, 80, 78, 77, 75, 56, 55, 53], [95, 93, 87, 85, 82, 81, 77, 76, 72, 60, 58, 43], [99, 97, 93, 89, 80, 74, 65, 62, 60, 40], [96, 90, 86, 85, 84, 82, 81, 80, 79, 77, 75, 74, 72, 71, 60], [96, 94, 93, 91, 90, 87, 85, 80, 79, 78, 74, 73, 70, 56], [95, 92, 85, 84, 83, 78, 77, 76, 75, 62, 60, 55], [94, 84, 81, 80, 79, 78, 75, 73, 70, 56, 50], [87, 86, 82, 81, 76, 73, 72, 71, 58, 48], [96, 92, 88, 87, 86, 85, 75, 73, 71, 69, 64, 57], [101, 100, 96, 93, 90, 89, 88, 86, 85, 76, 75, 74, 72, 69], [95, 91, 88, 81, 80, 79, 78, 72, 69, 56], [89, 84, 83, 77, 76, 75, 71, 69, 55], [101, 95, 83, 74, 73, 72, 48], [82, 80, 79, 76, 75, 71, 70, 69], [83, 78, 76, 70, 55], [95, 89, 86, 82, 77, 70], [93, 77, 69, 55], [78, 75, 74, 71, 70], [92, 91, 79, 70, 69], [84, 81, 74, 70], [94, 76, 74, 71], [92, 79, 73, 69], [75, 70, 60], [75, 73, 61], [83, 77, 72], [87, 86, 82], [72, 71, 69], [79, 76, 69], [82, 78, 70], [73, 72], [76, 71], [81, 74], [80, 74], [91, 71], [69], [79], [70], [69], [70], [71], [69], [73], [77], [102], [102], [102], [102], [102], [102], [102], [102], [102], [102], [102], [102], [102], [102], [102], [102], [102], [102], [102], [102], [102], [102], [102], [102], [102], [102], [102], [102], [102], [102], [102], [102], [102], []]
letting durations = [[0], [3, 5, 6], [6, 7, 8], [6, 7, 10], [1, 4, 7], [1, 8, 10], [6, 8, 9], [7, 8, 9], [4, 5, 6], [1, 3, 5], [1, 2, 3], [1, 2, 6], [2, 8, 9], [3, 5, 7], [2, 5, 8], [6, 7, 10], [2, 3, 4], [2, 4, 6], [5, 6, 7], [1, 7, 10], [7, 8, 9], [1, 6, 10], [5, 7, 9], [2, 5, 7], [1, 4, 6], [7, 8, 9], [4, 5, 6], [4, 6, 8], [7, 8, 10], [4, 5, 6], [5, 6, 8], [7, 8, 10], [1, 2, 8], [3, 4, 6], [5, 6, 7], [1, 6, 7], [7, 9, 10], [5, 6, 7], [1, 2, 6], [1, 3, 10], [2, 3, 10], [1, 9, 10], [2, 8, 9], [1, 5, 9], [2, 3, 4], [5, 6, 8], [1, 7, 9], [4, 6, 7], [3, 6, 7], [6, 7, 10], [2, 9, 10], [2, 6, 8], [1, 2, 4], [3, 4, 5], [2, 3, 10], [2, 5, 6], [2, 8, 9], [1, 4, 8], [1, 7, 8], [4, 5, 10], [3, 9, 10], [2, 3, 7], [2, 5, 6], [3, 6, 10], [2, 3, 6], [3, 6, 8], [2, 5, 9], [6, 7, 9], [2, 3, 10], [2, 3, 8], [8, 9, 10], [1, 5, 8], [1, 6, 7], [5, 8, 10], [2, 7, 8], [2, 4, 7], [3, 7, 10], [1, 2, 5], [3, 4, 10], [1, 2, 5], [1, 2, 7], [4, 8, 10], [1, 5, 6], [4, 5, 8], [1, 8, 9], [1, 2, 3], [1, 4, 7], [1, 2, 9], [1, 2, 4], [4, 7, 9], [6, 7, 8], [4, 5, 9], [3, 4, 8], [4, 6, 9], [1, 2, 10], [3, 6, 9], [1, 2, 3], [3, 5, 10], [8, 9, 10], [1, 6, 8], [1, 6, 8], [0]]
letting resourceUsage = [[[0, 0, 0, 0]], [[2, 3, 8, 4], [2, 3, 7, 3], [2, 3, 5, 2]], [[4, 3, 7, 6], [4, 3, 5, 5], [4, 2, 2, 5]], [[1, 2, 8, 8], [1, 1, 7, 7], [1, 1, 6, 6]], [[2, 3, 7, 8], [1, 2, 7, 7], [1, 1, 7, 7]], [[3, 2, 7, 6], [2, 1, 6, 6], [2, 1, 6, 5]], [[5, 3, 8, 5], [4, 2, 8, 5], [4, 1, 6, 5]], [[4, 4, 6, 8], [4, 3, 4, 8], [3, 3, 1, 6]], [[4, 2, 6, 3], [3, 1, 6, 2], [3, 1, 5, 2]], [[3, 4, 9, 8], [2, 4, 8, 6], [2, 4, 7, 3]], [[2, 4, 9, 5], [2, 4, 7, 4], [2, 4, 5, 2]], [[4, 3, 6, 5], [4, 3, 3, 5], [3, 1, 3, 4]], [[2, 4, 1, 9], [2, 2, 1, 7], [1, 1, 1, 7]], [[5, 2, 9, 7], [3, 1, 9, 6], [1, 1, 9, 4]], [[5, 4, 5, 6], [4, 2, 5, 5], [4, 2, 4, 5]], [[4, 3, 4, 4], [4, 3, 3, 4], [4, 2, 3, 4]], [[4, 1, 4, 9], [3, 1, 3, 8], [3, 1, 1, 8]], [[3, 5, 7, 9], [3, 4, 4, 7], [3, 4, 3, 4]], [[3, 3, 9, 5], [3, 2, 7, 5], [2, 2, 4, 5]], [[3, 4, 9, 6], [2, 3, 8, 5], [2, 3, 8, 4]], [[2, 5, 8, 3], [2, 5, 5, 4], [2, 5, 5, 3]], [[4, 5, 2, 3], [3, 2, 1, 3], [2, 2, 1, 3]], [[2, 3, 4, 10], [2, 3, 2, 6], [2, 3, 2, 5]], [[4, 4, 1, 4], [4, 4, 1, 3], [2, 4, 1, 3]], [[4, 1, 8, 6], [2, 1, 7, 6], [1, 1, 5, 3]], [[3, 4, 4, 4], [1, 2, 4, 3], [1, 2, 2, 3]], [[3, 4, 7, 7], [2, 4, 6, 6], [2, 4, 6, 4]], [[1, 4, 8, 5], [1, 3, 7, 4], [1, 3, 6, 3]], [[4, 3, 4, 5], [4, 3, 4, 4], [2, 1, 2, 2]], [[3, 2, 6, 5], [2, 1, 4, 2], [2, 1, 3, 2]], [[5, 4, 7, 6], [5, 2, 5, 4], [5, 1, 2, 4]], [[5, 5, 5, 8], [2, 4, 5, 6], [2, 2, 4, 3]], [[5, 4, 7, 2], [4, 3, 7, 2], [4, 3, 3, 2]], [[5, 1, 6, 4], [3, 1, 5, 3], [3, 1, 5, 2]], [[2, 3, 6, 10], [2, 3, 3, 4], [2, 3, 2, 2]], [[2, 4, 8, 7], [2, 4, 7, 5], [2, 4, 7, 2]], [[3, 1, 10, 5], [1, 1, 9, 5], [1, 1, 9, 4]], [[3, 3, 8, 5], [3, 3, 5, 4], [3, 2, 2, 4]], [[5, 3, 7, 7], [4, 2, 6, 4], [3, 2, 5, 4]], [[3, 4, 7, 10], [2, 3, 7, 5], [1, 2, 4, 2]], [[2, 4, 4, 6], [2, 4, 2, 5], [2, 3, 1, 3]], [[2, 4, 6, 10], [2, 3, 6, 8], [2, 3, 5, 7]], [[1, 3, 4, 7], [1, 2, 3, 4], [1, 2, 2, 4]], [[4, 3, 7, 2], [2, 3, 6, 1], [1, 3, 6, 1]], [[4, 3, 8, 9], [2, 3, 8, 7], [1, 1, 5, 4]], [[2, 3, 7, 4], [2, 3, 5, 3], [1, 3, 4, 2]], [[2, 4, 7, 9], [2, 3, 6, 6], [2, 2, 3, 3]], [[2, 5, 9, 7], [1, 3, 5, 6], [1, 2, 5, 6]], [[2, 3, 6, 5], [1, 3, 5, 4], [1, 3, 5, 3]], [[3, 3, 9, 6], [2, 3, 8, 3], [2, 3, 6, 2]], [[2, 3, 3, 4], [2, 3, 3, 3], [2, 3, 2, 4]], [[5, 4, 9, 7], [2, 3, 7, 6], [1, 3, 5, 4]], [[4, 4, 5, 4], [4, 4, 5, 2], [4, 2, 5, 2]], [[3, 4, 3, 10], [3, 4, 3, 7], [3, 4, 3, 6]], [[2, 2, 8, 7], [2, 2, 5, 7], [2, 2, 5, 6]], [[3, 3, 3, 9], [2, 1, 3, 9], [2, 1, 3, 8]], [[4, 5, 5, 6], [3, 5, 4, 5], [1, 5, 2, 4]], [[4, 2, 4, 5], [4, 1, 2, 3], [4, 1, 1, 3]], [[3, 5, 6, 2], [2, 5, 5, 1], [2, 5, 3, 1]], [[4, 4, 7, 7], [3, 3, 6, 6], [3, 2, 4, 4]], [[4, 3, 8, 10], [2, 2, 8, 8], [2, 2, 6, 6]], [[5, 3, 7, 6], [5, 3, 6, 5], [5, 3, 5, 2]], [[5, 3, 8, 3], [3, 3, 5, 2], [1, 3, 5, 1]], [[4, 4, 4, 2], [4, 3, 4, 1], [3, 3, 4, 1]], [[5, 3, 9, 7], [4, 1, 7, 4], [4, 1, 6, 2]], [[3, 4, 5, 9], [2, 4, 2, 8], [2, 4, 2, 7]], [[2, 2, 6, 8], [1, 1, 2, 6], [1, 1, 1, 4]], [[3, 3, 9, 2], [3, 1, 7, 2], [3, 1, 7, 1]], [[3, 5, 9, 3], [3, 4, 8, 3], [1, 4, 5, 2]], [[3, 4, 5, 9], [3, 3, 4, 8], [2, 2, 4, 7]], [[2, 3, 10, 5], [1, 3, 7, 3], [1, 3, 6, 2]], [[3, 3, 8, 6], [2, 3, 4, 5], [1, 3, 2, 4]], [[4, 4, 3, 10], [2, 2, 2, 10], [2, 2, 1, 10]], [[5, 3, 4, 10], [4, 1, 3, 4], [3, 1, 1, 2]], [[5, 5, 7, 7], [3, 5, 7, 7], [2, 5, 7, 7]], [[3, 3, 7, 7], [3, 2, 6, 6], [2, 1, 6, 5]], [[1, 5, 8, 6], [1, 4, 7, 6], [1, 3, 7, 6]], [[3, 2, 4, 4], [2, 2, 3, 4], [2, 2, 3, 3]], [[4, 5, 9, 9], [4, 3, 9, 9], [4, 3, 9, 8]], [[5, 3, 6, 8], [4, 3, 5, 8], [3, 3, 5, 6]], [[4, 4, 6, 7], [4, 3, 5, 6], [4, 1, 5, 6]], [[5, 3, 6, 8], [3, 2, 5, 7], [3, 1, 5, 7]], [[4, 1, 2, 3], [3, 1, 2, 3], [2, 1, 2, 2]], [[5, 3, 4, 9], [4, 2, 4, 7], [4, 2, 3, 7]], [[3, 3, 5, 1], [3, 3, 4, 1], [3, 3, 3, 1]], [[4, 4, 7, 7], [3, 3, 5, 5], [3, 2, 5, 4]], [[3, 5, 10, 5], [2, 3, 9, 3], [2, 3, 8, 3]], [[4, 3, 9, 9], [3, 3, 5, 7], [3, 3, 4, 5]], [[4, 4, 8, 8], [3, 4, 6, 8], [3, 4, 2, 8]], [[4, 4, 5, 8], [3, 3, 4, 4], [3, 3, 4, 3]], [[3, 4, 10, 3], [1, 3, 10, 2], [1, 3, 10, 1]], [[3, 4, 5, 9], [1, 3, 3, 5], [1, 2, 2, 2]], [[3, 4, 7, 5], [2, 3, 6, 5], [1, 3, 5, 5]], [[4, 2, 8, 8], [3, 1, 6, 7], [3, 1, 6, 6]], [[2, 3, 8, 3], [1, 3, 8, 2], [1, 3, 7, 2]], [[5, 2, 8, 9], [5, 2, 5, 8], [5, 1, 1, 8]], [[3, 2, 5, 5], [1, 1, 4, 5], [1, 1, 4, 4]], [[3, 4, 8, 3], [2, 3, 6, 2], [2, 3, 4, 2]], [[1, 3, 2, 8], [1, 2, 2, 7], [1, 1, 2, 7]], [[4, 1, 7, 7], [3, 1, 5, 6], [2, 1, 5, 5]], [[3, 5, 4, 4], [2, 3, 4, 3], [1, 3, 3, 2]], [[0, 0, 0, 0]]]
